DIMENSION :19
NODE_COORD_SECTION
1 67.6925199703625 -4.441439093623089
2 -83.8315130761009 -84.96570314449245
3 62.16308437227585 -4.863438972124982
4 78.01727573998426 39.14728691246748
5 -20.985242366809672 -54.15714154563449
6 -13.752676129745439 1.5366292970746116
7 85.11761016612357 -60.500062672873646
8 -8.67362812113835 39.44901009061908
9 -63.768051636824616 47.54655365885162
10 67.55524414536035 86.14622691304251
11 -41.36336100749494 47.96980025911378
12 74.55731210034463 -72.16041469892826
13 66.76910626983309 -76.59332581412129
14 -14.589853422312117 62.058025594929916
15 1.8196327391766403 -97.48409389191504
16 -69.86846341764685 75.35164527837267
17 99.0742260060805 -83.86496357462309
18 41.70855457787454 -1.7287680745120042
19 95.90170073430639 -29.598422493622138
EOF
